
letting r = 10
letting n = 6

letting demand =
        [[0,1,1,1,0,0],
         [0,0,0,0,0,0],
         [0,0,0,1,0,1],
         [0,0,0,0,0,0],
         [0,0,0,0,0,1],
         [0,0,0,0,0,0]]


letting capacity_nodes be [3, 1, 2, 4, 2, 2, 4, 2, 4, 1]